c 0.0027625560760498047 (encode time in sec)
p cnf 130 280
1 2 3 4 0
1 2 -3 7 0
1 -2 3 6 0
1 -2 -3 5 0
-1 2 3 8 0
-1 2 -3 0
-1 -2 3 0
-1 -2 -3 0
9 10 11 16 0
9 10 -11 14 0
9 -10 11 12 0
9 -10 -11 15 0
-9 10 11 13 0
-9 10 -11 0
-9 -10 11 0
-9 -10 -11 0
17 18 19 20 0
17 18 -19 23 0
17 -18 19 22 0
17 -18 -19 21 0
-17 18 19 24 0
-17 18 -19 0
-17 -18 19 0
-17 -18 -19 0
25 26 27 1 2 3 9 10 11 28 0
25 26 27 1 2 3 9 10 -11 56 0
25 26 27 1 2 3 9 -10 11 30 0
25 26 27 1 2 3 9 -10 -11 56 0
25 26 27 1 2 3 -9 10 11 56 0
25 26 27 1 2 -3 9 10 11 29 0
25 26 27 1 2 -3 9 10 -11 48 0
25 26 27 1 2 -3 9 -10 11 78 0
25 26 27 1 2 -3 9 -10 -11 74 0
25 26 27 1 2 -3 -9 10 11 49 0
25 26 27 1 -2 3 9 10 11 31 0
25 26 27 1 -2 3 9 10 -11 36 0
25 26 27 1 -2 3 9 -10 11 71 0
25 26 27 1 -2 3 9 -10 -11 75 0
25 26 27 1 -2 3 -9 10 11 32 0
25 26 27 1 -2 -3 9 10 11 59 0
25 26 27 1 -2 -3 9 10 -11 57 0
25 26 27 1 -2 -3 9 -10 11 33 0
25 26 27 1 -2 -3 9 -10 -11 58 0
25 26 27 1 -2 -3 -9 10 11 49 0
25 26 27 -1 2 3 9 10 11 56 0
25 26 27 -1 2 3 9 10 -11 34 0
25 26 27 -1 2 3 9 -10 11 59 0
25 26 27 -1 2 3 9 -10 -11 35 0
25 26 27 -1 2 3 -9 10 11 56 0
25 26 -27 1 2 3 9 10 11 34 0
25 26 -27 1 2 3 9 10 -11 37 0
25 26 -27 1 2 3 9 -10 11 51 0
25 26 -27 1 2 3 9 -10 -11 56 0
25 26 -27 1 2 3 -9 10 11 56 0
25 26 -27 1 2 -3 9 10 11 41 0
25 26 -27 1 2 -3 9 10 -11 65 0
25 26 -27 1 2 -3 9 -10 11 73 0
25 26 -27 1 2 -3 9 -10 -11 70 0
25 26 -27 1 2 -3 -9 10 11 49 0
25 26 -27 1 -2 3 9 10 11 76 0
25 26 -27 1 -2 3 9 10 -11 68 0
25 26 -27 1 -2 3 9 -10 11 50 0
25 26 -27 1 -2 3 9 -10 -11 75 0
25 26 -27 1 -2 3 -9 10 11 32 0
25 26 -27 1 -2 -3 9 10 11 47 0
25 26 -27 1 -2 -3 9 10 -11 60 0
25 26 -27 1 -2 -3 9 -10 11 33 0
25 26 -27 1 -2 -3 9 -10 -11 58 0
25 26 -27 1 -2 -3 -9 10 11 49 0
25 26 -27 -1 2 3 9 10 11 56 0
25 26 -27 -1 2 3 9 10 -11 34 0
25 26 -27 -1 2 3 9 -10 11 59 0
25 26 -27 -1 2 3 9 -10 -11 35 0
25 26 -27 -1 2 3 -9 10 11 56 0
25 -26 27 1 2 3 9 10 11 34 0
25 -26 27 1 2 3 9 10 -11 56 0
25 -26 27 1 2 3 9 -10 11 61 0
25 -26 27 1 2 3 9 -10 -11 37 0
25 -26 27 1 2 3 -9 10 11 56 0
25 -26 27 1 2 -3 9 10 11 62 0
25 -26 27 1 2 -3 9 10 -11 67 0
25 -26 27 1 2 -3 9 -10 11 38 0
25 -26 27 1 2 -3 9 -10 -11 54 0
25 -26 27 1 2 -3 -9 10 11 56 0
25 -26 27 1 -2 3 9 10 11 46 0
25 -26 27 1 -2 3 9 10 -11 69 0
25 -26 27 1 -2 3 9 -10 11 52 0
25 -26 27 1 -2 3 9 -10 -11 66 0
25 -26 27 1 -2 3 -9 10 11 32 0
25 -26 27 1 -2 -3 9 10 11 59 0
25 -26 27 1 -2 -3 9 10 -11 77 0
25 -26 27 1 -2 -3 9 -10 11 39 0
25 -26 27 1 -2 -3 9 -10 -11 58 0
25 -26 27 1 -2 -3 -9 10 11 49 0
25 -26 27 -1 2 3 9 10 11 37 0
25 -26 27 -1 2 3 9 10 -11 28 0
25 -26 27 -1 2 3 9 -10 11 59 0
25 -26 27 -1 2 3 9 -10 -11 35 0
25 -26 27 -1 2 3 -9 10 11 56 0
25 -26 -27 1 2 3 9 10 11 34 0
25 -26 -27 1 2 3 9 10 -11 56 0
25 -26 -27 1 2 3 9 -10 11 61 0
25 -26 -27 1 2 3 9 -10 -11 56 0
25 -26 -27 1 2 3 -9 10 11 37 0
25 -26 -27 1 2 -3 9 10 11 62 0
25 -26 -27 1 2 -3 9 10 -11 72 0
25 -26 -27 1 2 -3 9 -10 11 78 0
25 -26 -27 1 2 -3 9 -10 -11 63 0
25 -26 -27 1 2 -3 -9 10 11 28 0
25 -26 -27 1 -2 3 9 10 11 46 0
25 -26 -27 1 -2 3 9 10 -11 36 0
25 -26 -27 1 -2 3 9 -10 11 64 0
25 -26 -27 1 -2 3 9 -10 -11 44 0
25 -26 -27 1 -2 3 -9 10 11 40 0
25 -26 -27 1 -2 -3 9 10 11 59 0
25 -26 -27 1 -2 -3 9 10 -11 57 0
25 -26 -27 1 -2 -3 9 -10 11 42 0
25 -26 -27 1 -2 -3 9 -10 -11 45 0
25 -26 -27 1 -2 -3 -9 10 11 49 0
25 -26 -27 -1 2 3 9 10 11 56 0
25 -26 -27 -1 2 3 9 10 -11 34 0
25 -26 -27 -1 2 3 9 -10 11 47 0
25 -26 -27 -1 2 3 9 -10 -11 79 0
25 -26 -27 -1 2 3 -9 10 11 56 0
-25 26 27 1 2 3 9 10 11 34 0
-25 26 27 1 2 3 9 10 -11 56 0
-25 26 27 1 2 3 9 -10 11 61 0
-25 26 27 1 2 3 9 -10 -11 56 0
-25 26 27 1 2 3 -9 10 11 56 0
-25 26 27 1 2 -3 9 10 11 62 0
-25 26 27 1 2 -3 9 10 -11 72 0
-25 26 27 1 2 -3 9 -10 11 78 0
-25 26 27 1 2 -3 9 -10 -11 74 0
-25 26 27 1 2 -3 -9 10 11 56 0
-25 26 27 1 -2 3 9 10 11 46 0
-25 26 27 1 -2 3 9 10 -11 36 0
-25 26 27 1 -2 3 9 -10 11 71 0
-25 26 27 1 -2 3 9 -10 -11 75 0
-25 26 27 1 -2 3 -9 10 11 43 0
-25 26 27 1 -2 -3 9 10 11 59 0
-25 26 27 1 -2 -3 9 10 -11 57 0
-25 26 27 1 -2 -3 9 -10 11 33 0
-25 26 27 1 -2 -3 9 -10 -11 46 0
-25 26 27 1 -2 -3 -9 10 11 53 0
-25 26 27 -1 2 3 9 10 11 56 0
-25 26 27 -1 2 3 9 10 -11 34 0
-25 26 27 -1 2 3 9 -10 11 59 0
-25 26 27 -1 2 3 9 -10 -11 55 0
-25 26 27 -1 2 3 -9 10 11 37 0
-25 26 -27 0
-25 -26 27 0
-25 -26 -27 0
80 81 82 17 18 19 25 26 27 83 0
80 81 82 17 18 19 25 26 -27 112 0
80 81 82 17 18 19 25 -26 27 114 0
80 81 82 17 18 19 25 -26 -27 101 0
80 81 82 17 18 19 -25 26 27 113 0
80 81 82 17 18 -19 25 26 27 84 0
80 81 82 17 18 -19 25 26 -27 115 0
80 81 82 17 18 -19 25 -26 27 97 0
80 81 82 17 18 -19 25 -26 -27 108 0
80 81 82 17 18 -19 -25 26 27 85 0
80 81 82 17 -18 19 25 26 27 86 0
80 81 82 17 -18 19 25 26 -27 102 0
80 81 82 17 -18 19 25 -26 27 103 0
80 81 82 17 -18 19 25 -26 -27 104 0
80 81 82 17 -18 19 -25 26 27 116 0
80 81 82 17 -18 -19 25 26 27 85 0
80 81 82 17 -18 -19 25 26 -27 126 0
80 81 82 17 -18 -19 25 -26 27 108 0
80 81 82 17 -18 -19 25 -26 -27 127 0
80 81 82 17 -18 -19 -25 26 27 113 0
80 81 82 -17 18 19 25 26 27 88 0
80 81 82 -17 18 19 25 26 -27 87 0
80 81 82 -17 18 19 25 -26 27 85 0
80 81 82 -17 18 19 25 -26 -27 87 0
80 81 82 -17 18 19 -25 26 27 88 0
80 81 -82 17 18 19 25 26 27 85 0
80 81 -82 17 18 19 25 26 -27 89 0
80 81 -82 17 18 19 25 -26 27 90 0
80 81 -82 17 18 19 25 -26 -27 101 0
80 81 -82 17 18 19 -25 26 27 113 0
80 81 -82 17 18 -19 25 26 27 91 0
80 81 -82 17 18 -19 25 26 -27 92 0
80 81 -82 17 18 -19 25 -26 27 107 0
80 81 -82 17 18 -19 25 -26 -27 108 0
80 81 -82 17 18 -19 -25 26 27 85 0
80 81 -82 17 -18 19 25 26 27 121 0
80 81 -82 17 -18 19 25 26 -27 83 0
80 81 -82 17 -18 19 25 -26 27 103 0
80 81 -82 17 -18 19 25 -26 -27 104 0
80 81 -82 17 -18 19 -25 26 27 116 0
80 81 -82 17 -18 -19 25 26 27 83 0
80 81 -82 17 -18 -19 25 26 -27 117 0
80 81 -82 17 -18 -19 25 -26 27 108 0
80 81 -82 17 -18 -19 25 -26 -27 127 0
80 81 -82 17 -18 -19 -25 26 27 113 0
80 81 -82 -17 18 19 25 26 27 88 0
80 81 -82 -17 18 19 25 26 -27 87 0
80 81 -82 -17 18 19 25 -26 27 85 0
80 81 -82 -17 18 19 25 -26 -27 87 0
80 81 -82 -17 18 19 -25 26 27 88 0
80 -81 82 17 18 19 25 26 27 85 0
80 -81 82 17 18 19 25 26 -27 112 0
80 -81 82 17 18 19 25 -26 27 93 0
80 -81 82 17 18 19 25 -26 -27 83 0
80 -81 82 17 18 19 -25 26 27 113 0
80 -81 82 17 18 -19 25 26 27 99 0
80 -81 82 17 18 -19 25 26 -27 118 0
80 -81 82 17 18 -19 25 -26 27 130 0
80 -81 82 17 18 -19 25 -26 -27 105 0
80 -81 82 17 18 -19 -25 26 27 85 0
80 -81 82 17 -18 19 25 26 27 112 0
80 -81 82 17 -18 19 25 26 -27 100 0
80 -81 82 17 -18 19 25 -26 27 128 0
80 -81 82 17 -18 19 25 -26 -27 119 0
80 -81 82 17 -18 19 -25 26 27 116 0
80 -81 82 17 -18 -19 25 26 27 85 0
80 -81 82 17 -18 -19 25 26 -27 122 0
80 -81 82 17 -18 -19 25 -26 27 109 0
80 -81 82 17 -18 -19 25 -26 -27 127 0
80 -81 82 17 -18 -19 -25 26 27 113 0
80 -81 82 -17 18 19 25 26 27 88 0
80 -81 82 -17 18 19 25 26 -27 129 0
80 -81 82 -17 18 19 25 -26 27 94 0
80 -81 82 -17 18 19 25 -26 -27 87 0
80 -81 82 -17 18 19 -25 26 27 88 0
80 -81 -82 17 18 19 25 26 27 85 0
80 -81 -82 17 18 19 25 26 -27 101 0
80 -81 -82 17 18 19 25 -26 27 114 0
80 -81 -82 17 18 19 25 -26 -27 98 0
80 -81 -82 17 18 19 -25 26 27 125 0
80 -81 -82 17 18 -19 25 26 27 99 0
80 -81 -82 17 18 -19 25 26 -27 115 0
80 -81 -82 17 18 -19 25 -26 27 97 0
80 -81 -82 17 18 -19 25 -26 -27 123 0
80 -81 -82 17 18 -19 -25 26 27 95 0
80 -81 -82 17 -18 19 25 26 27 112 0
80 -81 -82 17 -18 19 25 26 -27 102 0
80 -81 -82 17 -18 19 25 -26 27 120 0
80 -81 -82 17 -18 19 25 -26 -27 110 0
80 -81 -82 17 -18 19 -25 26 27 116 0
80 -81 -82 17 -18 -19 25 26 27 85 0
80 -81 -82 17 -18 -19 25 26 -27 126 0
80 -81 -82 17 -18 -19 25 -26 27 96 0
80 -81 -82 17 -18 -19 25 -26 -27 124 0
80 -81 -82 17 -18 -19 -25 26 27 113 0
80 -81 -82 -17 18 19 25 26 27 88 0
80 -81 -82 -17 18 19 25 26 -27 87 0
80 -81 -82 -17 18 19 25 -26 27 95 0
80 -81 -82 -17 18 19 25 -26 -27 129 0
80 -81 -82 -17 18 19 -25 26 27 88 0
-80 81 82 17 18 19 25 26 27 85 0
-80 81 82 17 18 19 25 26 -27 101 0
-80 81 82 17 18 19 25 -26 27 114 0
-80 81 82 17 18 19 25 -26 -27 101 0
-80 81 82 17 18 19 -25 26 27 113 0
-80 81 82 17 18 -19 25 26 27 99 0
-80 81 82 17 18 -19 25 26 -27 115 0
-80 81 82 17 18 -19 25 -26 27 97 0
-80 81 82 17 18 -19 25 -26 -27 108 0
-80 81 82 17 18 -19 -25 26 27 94 0
-80 81 82 17 -18 19 25 26 27 112 0
-80 81 82 17 -18 19 25 26 -27 102 0
-80 81 82 17 -18 19 25 -26 27 103 0
-80 81 82 17 -18 19 25 -26 -27 119 0
-80 81 82 17 -18 19 -25 26 27 111 0
-80 81 82 17 -18 -19 25 26 27 85 0
-80 81 82 17 -18 -19 25 26 -27 126 0
-80 81 82 17 -18 -19 25 -26 27 108 0
-80 81 82 17 -18 -19 25 -26 -27 106 0
-80 81 82 17 -18 -19 -25 26 27 125 0
-80 81 82 -17 18 19 25 26 27 88 0
-80 81 82 -17 18 19 25 26 -27 87 0
-80 81 82 -17 18 19 25 -26 27 85 0
-80 81 82 -17 18 19 25 -26 -27 87 0
-80 81 82 -17 18 19 -25 26 27 88 0
-80 81 -82 0
-80 -81 82 0
-80 -81 -82 0
